NPROCS=0
This instance is clustered!
Gurobi Optimizer version 9.0.0 build v9.0.0rc2 (linux64)
Optimize a model with 24 rows, 145 columns and 288 nonzeros
Model fingerprint: 0x647084d5
Variable types: 1 continuous, 144 integer (144 binary)
Coefficient statistics:
  Matrix range     [1e+00, 1e+00]
  Objective range  [1e+00, 1e+02]
  Bounds range     [1e+00, 1e+00]
  RHS range        [1e+00, 1e+00]
Presolve removed 2 rows and 33 columns
Presolve time: 0.00s
Presolved: 22 rows, 112 columns, 222 nonzeros
Variable types: 1 continuous, 111 integer (111 binary)

Root relaxation: objective 2.240594e+02, 21 iterations, 0.00 seconds

    Nodes    |    Current Node    |     Objective Bounds      |     Work
 Expl Unexpl |  Obj  Depth IntInf | Incumbent    BestBd   Gap | It/Node Time

     0     0  224.05936    0   14          -  224.05936      -     -    0s
H    0     0                     601.9730749  224.05936  62.8%     -    0s
H    0     0                     470.6667029  224.05936  52.4%     -    0s
     0     0  250.54651    0   14  470.66670  250.54651  46.8%     -    0s
H    0     0                     386.2236435  250.54651  35.1%     -    0s
H    0     0                     367.9350521  250.54651  31.9%     -    0s
     0     0  259.13058    0   19  367.93505  259.13058  29.6%     -    0s
H    0     0                     291.6341547  259.13058  11.1%     -    0s
     0     0  261.96171    0   23  291.63415  261.96171  10.2%     -    0s
     0     0  264.51622    0   22  291.63415  264.51622  9.30%     -    0s
     0     0  267.80599    0   23  291.63415  267.80599  8.17%     -    0s
     0     0  271.64046    0   21  291.63415  271.64046  6.86%     -    0s
     0     0  276.12521    0   25  291.63415  276.12521  5.32%     -    0s
     0     0  276.14721    0   25  291.63415  276.14721  5.31%     -    0s
     0     0  277.99363    0   23  291.63415  277.99363  4.68%     -    0s
     0     0  277.99363    0   23  291.63415  277.99363  4.68%     -    0s
     0     0  284.48904    0   15  291.63415  284.48904  2.45%     -    0s
     0     0  288.27570    0   18  291.63415  288.27570  1.15%     -    0s
     0     0  288.98657    0   18  291.63415  288.98657  0.91%     -    0s
     0     0  289.13319    0   18  291.63415  289.13319  0.86%     -    0s
     0     0     cutoff    0       291.63415  291.63415  0.00%     -    0s

Explored 1 nodes (173 simplex iterations) in 0.07 seconds
Thread count was 12 (of 12 available processors)

Solution count 5: 291.634 367.935 386.224 ... 601.973

Optimal solution found (tolerance 1.00e-04)
Best objective 2.916341546757e+02, best bound 2.916341546757e+02, gap 0.0000%

User-callback calls 168, time in user-callback 0.00 sec
/projects/academic/josewalt/caigao/RRARP_BD/BendersDecomp/ret/model_outs/n_10_e_4_algo_3.out
 =====>>>>> Solution is written to file in <../ret/model_outs> !!!
===>> All Done!
